\ Model Routes
\ LP format - for model browsing. Use MPS format to capture full model detail.
Maximize
  - 191.7153353028244 R{0,0} + 623.2046552982704 R{0,1}
   + 623.2046552982704 R{0,2} - 249.2301939667805 R{0,3}
   + 234.7650315204939 R{0,4} + 397.2891588355392 R{0,5}
   + 852.3918860260821 R{0,6} + 1651.342881478931 R{0,7}
   + 116.5712220500383 R{0,8} + 2023.571972725141 R{0,9}
   + 734.1859391671441 R{0,10} + 730.4030416488675 R{0,11}
   + 1374.070577640601 R{0,12} + 1378.289009339632 R{0,13}
   + 940.3580874661411 R{0,14} + 1227.767447698524 R{0,15}
   - 256.140831891889 R{1,0} - 58.16416216887956 R{1,1}
   + 669.0062570112706 R{1,2} + 759.5975810787525 R{1,3}
   + 357.469470542976 R{1,4} + 578.4176914825895 R{1,5}
   + 94.42128623394359 R{1,6} + 653.2188619780368 R{1,7}
   + 561.6352764520345 R{1,8} + 1198.881248318718 R{2,0}
   + 1198.881248318718 R{2,1} - 278.4443928850388 R{2,2}
   - 59.13410337035452 R{2,3} + 602.7748664658451 R{2,4}
   + 1100.505917706273 R{2,5} + 358.8189713278232 R{2,6}
   + 908.5537276819196 R{2,7} + 629.9638570536306 R{2,8}
   + 947.5724883564153 R{2,9} + 336.2137763540575 R{2,10}
   + 184.3173765427827 R{2,11} + 723.8667241578627 R{2,12}
   - 260.2482995389823 R{3,0} + 967.7221973521264 R{3,1}
   + 876.563160618656 R{3,2} + 1237.565877888776 R{3,3}
   + 781.1766593979985 R{3,4} + 3448.189381727681 R{3,5}
   + 1014.55894586856 R{3,6} + 1090.686718054411 R{3,7}
   + 693.5709378683309 R{3,8} + 1057.448911172516 R{3,9}
   + 933.3308720826096 R{3,10} + 481.4059379698955 R{3,11}
   + 899.9864471067865 R{3,12} + 768.2272885861344 R{3,13}
   + 495.7131693381942 R{3,14} + 744.4475983778905 R{3,15}
   + 513.6474531038335 R{3,16} + 679.910173649862 R{3,17}
   + 402.1384784616362 R{3,18} - 242.5208875955131 R{4,0}
   + 1055.572474837385 R{4,1} + 1576.196574514046 R{4,2}
   + 1614.759663885629 R{4,3} + 1854.440969712702 R{4,4}
   + 2714.080880209572 R{4,5} + 1992.185019670709 R{4,6}
   + 1005.628303056417 R{4,7} + 786.9308926185256 R{4,8}
   + 1939.237222409923 R{4,9} + 2088.125239191627 R{4,10}
   + 1410.713147295281 R{4,11} + 1916.956318985923 R{4,12}
   + 877.4978208009427 R{4,13} + 1916.956318985923 R{4,14}
   + 1908.054235642423 R{4,15} + 929.6020219100726 R{4,16}
   + 1689.593738412384 R{4,17} + 788.1961438134506 R{4,18}
   + 1709.8845418891 R{4,19} - 231.9775664337766 R{5,0}
   - 154.7059688266597 R{5,1} + 364.0546919427258 R{5,2}
   + 715.2101359508324 R{5,3} + 692.8408319730401 R{5,4}
   + 846.8749844373406 R{5,5} + 851.8006872936385 R{5,6}
   + 604.1963278902995 R{5,7} + 514.8755902039593 R{5,8}
   + 1295.52532293935 R{5,9} + 514.8755902039593 R{5,10}
   + 822.9116687080375 R{5,11} - 231.1436095783099 R{6,0}
   + 352.5135528432641 R{6,1} + 1376.623169502638 R{6,2}
   + 1941.768530245978 R{6,3} + 1284.30450233511 R{6,4}
   + 1973.412769000633 R{6,5} + 2315.438924086526 R{6,6}
   + 1841.705625104423 R{6,7} + 471.2879391465779 R{6,8}
   + 1841.705625104423 R{6,9} + 593.6529948594675 R{6,10}
   + 2008.830738456441 R{6,11} + 1272.310711770518 R{6,12}
   + 380.8566756451319 R{6,13} + 405.6545260264207 R{6,14}
   + 1510.006907251281 R{6,15} + 760.8695484573408 R{6,16}
   + 1777.7384311629 R{6,17}
Subject To
 R00: R{0,0} <= 1
 R01: R{0,1} <= 1
 R02: R{0,2} <= 1
 R03: R{0,3} <= 1
 R04: R{0,4} <= 1
 R05: R{0,5} <= 1
 R06: R{0,6} <= 1
 R07: R{0,7} <= 1
 R08: R{0,8} <= 1
 R09: R{0,9} <= 1
 R010: R{0,10} <= 1
 R011: R{0,11} <= 1
 R012: R{0,12} <= 1
 R013: R{0,13} <= 1
 R014: R{0,14} <= 1
 R015: R{0,15} <= 1
 R016: R{1,0} <= 1
 R017: R{1,1} <= 1
 R018: R{1,2} <= 1
 R019: R{1,3} <= 1
 R020: R{1,4} <= 1
 R021: R{1,5} <= 1
 R022: R{1,6} <= 1
 R023: R{1,7} <= 1
 R024: R{1,8} <= 1
 R025: R{2,0} <= 1
 R026: R{2,1} <= 1
 R027: R{2,2} <= 1
 R028: R{2,3} <= 1
 R029: R{2,4} <= 1
 R030: R{2,5} <= 1
 R031: R{2,6} <= 1
 R032: R{2,7} <= 1
 R033: R{2,8} <= 1
 R034: R{2,9} <= 1
 R035: R{2,10} <= 1
 R036: R{2,11} <= 1
 R037: R{2,12} <= 1
 R038: R{3,0} <= 1
 R039: R{3,1} <= 1
 R040: R{3,2} <= 1
 R041: R{3,3} <= 1
 R042: R{3,4} <= 1
 R043: R{3,5} <= 1
 R044: R{3,6} <= 1
 R045: R{3,7} <= 1
 R046: R{3,8} <= 1
 R047: R{3,9} <= 1
 R048: R{3,10} <= 1
 R049: R{3,11} <= 1
 R050: R{3,12} <= 1
 R051: R{3,13} <= 1
 R052: R{3,14} <= 1
 R053: R{3,15} <= 1
 R054: R{3,16} <= 1
 R055: R{3,17} <= 1
 R056: R{3,18} <= 1
 R057: R{4,0} <= 1
 R058: R{4,1} <= 1
 R059: R{4,2} <= 1
 R060: R{4,3} <= 1
 R061: R{4,4} <= 1
 R062: R{4,5} <= 1
 R063: R{4,6} <= 1
 R064: R{4,7} <= 1
 R065: R{4,8} <= 1
 R066: R{4,9} <= 1
 R067: R{4,10} <= 1
 R068: R{4,11} <= 1
 R069: R{4,12} <= 1
 R070: R{4,13} <= 1
 R071: R{4,14} <= 1
 R072: R{4,15} <= 1
 R073: R{4,16} <= 1
 R074: R{4,17} <= 1
 R075: R{4,18} <= 1
 R076: R{4,19} <= 1
 R077: R{5,0} <= 1
 R078: R{5,1} <= 1
 R079: R{5,2} <= 1
 R080: R{5,3} <= 1
 R081: R{5,4} <= 1
 R082: R{5,5} <= 1
 R083: R{5,6} <= 1
 R084: R{5,7} <= 1
 R085: R{5,8} <= 1
 R086: R{5,9} <= 1
 R087: R{5,10} <= 1
 R088: R{5,11} <= 1
 R089: R{6,0} <= 1
 R090: R{6,1} <= 1
 R091: R{6,2} <= 1
 R092: R{6,3} <= 1
 R093: R{6,4} <= 1
 R094: R{6,5} <= 1
 R095: R{6,6} <= 1
 R096: R{6,7} <= 1
 R097: R{6,8} <= 1
 R098: R{6,9} <= 1
 R099: R{6,10} <= 1
 R0100: R{6,11} <= 1
 R0101: R{6,12} <= 1
 R0102: R{6,13} <= 1
 R0103: R{6,14} <= 1
 R0104: R{6,15} <= 1
 R0105: R{6,16} <= 1
 R0106: R{6,17} <= 1
 R1_0: R{0,0} + R{0,1} + R{0,2} + R{0,3} + R{0,4} + R{0,5} + R{0,6}
   + R{0,7} + R{0,8} + R{0,9} + R{0,10} + R{0,11} + R{0,12} + R{0,13}
   + R{0,14} + R{0,15} <= 1
 R1_1: R{1,0} + R{1,1} + R{1,2} + R{1,3} + R{1,4} + R{1,5} + R{1,6}
   + R{1,7} + R{1,8} <= 1
 R1_2: R{2,0} + R{2,1} + R{2,2} + R{2,3} + R{2,4} + R{2,5} + R{2,6}
   + R{2,7} + R{2,8} + R{2,9} + R{2,10} + R{2,11} + R{2,12} <= 1
 R1_3: R{3,0} + R{3,1} + R{3,2} + R{3,3} + R{3,4} + R{3,5} + R{3,6}
   + R{3,7} + R{3,8} + R{3,9} + R{3,10} + R{3,11} + R{3,12} + R{3,13}
   + R{3,14} + R{3,15} + R{3,16} + R{3,17} + R{3,18} <= 1
 R1_4: R{4,0} + R{4,1} + R{4,2} + R{4,3} + R{4,4} + R{4,5} + R{4,6}
   + R{4,7} + R{4,8} + R{4,9} + R{4,10} + R{4,11} + R{4,12} + R{4,13}
   + R{4,14} + R{4,15} + R{4,16} + R{4,17} + R{4,18} + R{4,19} <= 1
 R1_5: R{5,0} + R{5,1} + R{5,2} + R{5,3} + R{5,4} + R{5,5} + R{5,6}
   + R{5,7} + R{5,8} + R{5,9} + R{5,10} + R{5,11} <= 1
 R1_6: R{6,0} + R{6,1} + R{6,2} + R{6,3} + R{6,4} + R{6,5} + R{6,6}
   + R{6,7} + R{6,8} + R{6,9} + R{6,10} + R{6,11} + R{6,12} + R{6,13}
   + R{6,14} + R{6,15} + R{6,16} + R{6,17} <= 1
 R2_0: 7 R{6,12} <= 7
 R2_1: 10 R{1,5} + 10 R{3,1} + 10 R{3,2} + 10 R{3,3} + 10 R{3,4}
   + 10 R{3,5} + 10 R{3,7} + 10 R{3,8} + 10 R{3,10} + 10 R{4,5} + 10 R{4,9}
   + 10 R{4,15} + 10 R{4,17} + 10 R{6,6} <= 10
 R2_2: <= 0
 R2_3: 4 R{1,3} + 4 R{1,4} + 4 R{1,5} + 4 R{1,6} + 4 R{1,8} + 4 R{4,5}
   + 4 R{4,9} + 4 R{4,15} + 4 R{4,17} + 4 R{5,1} + 4 R{5,2} + 4 R{5,3}
   + 4 R{5,5} <= 4
 R2_4: <= 0
 R2_5: 5 R{5,1} + 5 R{5,2} + 5 R{5,3} + 5 R{5,6} <= 5
 R2_6: 10 R{1,4} + 10 R{2,11} + 10 R{3,17} + 10 R{4,5} + 10 R{4,9}
   + 10 R{4,15} + 10 R{4,17} + 10 R{6,1} + 10 R{6,2} + 10 R{6,3}
   + 10 R{6,4} + 10 R{6,6} + 10 R{6,7} + 10 R{6,9} + 10 R{6,11}
   + 10 R{6,15} + 10 R{6,17} <= 10
 R2_7: <= 0
 R2_8: <= 0
 R2_9: 12 R{0,7} + 12 R{0,13} + 12 R{0,15} + 12 R{3,5} + 12 R{4,1}
   + 12 R{4,2} + 12 R{4,3} + 12 R{4,4} + 12 R{4,5} + 12 R{4,6} + 12 R{4,7}
   + 12 R{4,8} + 12 R{4,9} + 12 R{4,10} + 12 R{4,11} + 12 R{4,12}
   + 12 R{4,14} + 12 R{4,15} + 12 R{4,16} + 12 R{4,17} + 12 R{4,18}
   + 12 R{4,19} <= 12
 R2_10: 8 R{0,6} + 8 R{6,1} + 8 R{6,2} + 8 R{6,3} + 8 R{6,4} + 8 R{6,5}
   + 8 R{6,13} + 8 R{6,15} + 8 R{6,17} <= 8
 R2_11: 15 R{0,14} + 15 R{2,12} <= 15
 R2_12: <= 0
 R2_13: <= 0
 R2_14: <= 0
 R2_15: 11 R{0,0} + 11 R{0,1} + 11 R{0,2} + 11 R{4,1} + 11 R{4,2}
   + 11 R{4,3} + 11 R{4,8} + 11 R{4,11} + 11 R{4,18} <= 11
 R2_16: 5 R{0,6} + 5 R{0,7} + 5 R{0,12} + 5 R{0,13} + 5 R{0,15} + 5 R{3,5}
   <= 5
 R2_17: 11 R{6,5} + 11 R{6,6} + 11 R{6,7} + 11 R{6,8} + 11 R{6,9}
   + 11 R{6,11} + 11 R{6,13} <= 11
 R2_18: <= 0
 R2_19: 11 R{0,8} + 11 R{1,3} + 11 R{1,5} + 11 R{1,8} + 11 R{3,6}
   + 11 R{3,15} + 11 R{4,1} + 11 R{4,2} + 11 R{4,3} + 11 R{4,4} + 11 R{4,6}
   + 11 R{4,10} + 11 R{4,11} + 11 R{4,12} + 11 R{4,14} + 11 R{4,18}
   + 11 R{4,19} + 11 R{5,3} + 11 R{5,5} + 11 R{5,9} <= 11
 R2_20: 13 R{0,5} + 13 R{2,5} + 13 R{3,1} + 13 R{3,2} + 13 R{3,3}
   + 13 R{3,4} + 13 R{3,5} + 13 R{3,6} + 13 R{3,7} + 13 R{3,9} + 13 R{3,10}
   + 13 R{3,12} + 13 R{3,14} + 13 R{3,15} + 13 R{3,17} + 13 R{5,2}
   + 13 R{5,7} + 13 R{5,8} + 13 R{5,10} <= 13
 R2_21: <= 0
 R2_22: 10 R{0,13} + 10 R{2,10} <= 10
 R2_23: 14 R{0,1} + 14 R{0,2} + 14 R{0,6} + 14 R{0,9} + 14 R{0,10}
   + 14 R{2,0} + 14 R{2,1} + 14 R{2,9} + 14 R{4,7} + 14 R{4,13} + 14 R{6,2}
   + 14 R{6,3} + 14 R{6,5} + 14 R{6,15} + 14 R{6,17} <= 14
 R2_24: 10 R{2,7} + 10 R{3,1} + 10 R{3,2} + 10 R{3,3} + 10 R{3,5}
   + 10 R{3,6} + 10 R{3,7} + 10 R{3,8} + 10 R{3,11} + 10 R{3,16}
   + 10 R{3,18} + 10 R{5,3} + 10 R{6,12} <= 10
 R2_25: 13 R{0,9} + 13 R{0,15} + 13 R{2,7} + 13 R{4,1} + 13 R{4,2}
   + 13 R{4,3} + 13 R{4,4} + 13 R{4,5} + 13 R{4,6} + 13 R{4,7} + 13 R{4,8}
   + 13 R{4,9} + 13 R{4,11} + 13 R{4,12} + 13 R{4,13} + 13 R{4,14}
   + 13 R{4,15} + 13 R{4,16} + 13 R{4,17} + 13 R{5,4} <= 13
 R2_26: 6 R{1,1} + 6 R{1,2} + 6 R{1,3} + 6 R{1,4} + 6 R{1,7} + 6 R{3,12}
   + 6 R{5,4} + 6 R{6,12} <= 6
 R2_27: 5 R{0,9} + 5 R{3,5} + 5 R{3,10} + 5 R{3,12} + 5 R{3,16} + 5 R{3,18}
   + 5 R{4,4} + 5 R{4,19} + 5 R{5,5} + 5 R{6,4} + 5 R{6,5} + 5 R{6,6}
   + 5 R{6,7} + 5 R{6,8} + 5 R{6,9} + 5 R{6,10} + 5 R{6,11} + 5 R{6,12}
   + 5 R{6,14} + 5 R{6,16} <= 5
 R2_28: <= 0
 R2_29: <= 0
 R2_30: <= 0
 R2_31: 6 R{6,1} + 6 R{6,2} + 6 R{6,4} + 6 R{6,17} <= 6
 R2_32: 7 R{0,4} + 7 R{0,5} + 7 R{4,5} + 7 R{4,6} + 7 R{4,9} + 7 R{4,10}
   + 7 R{4,15} + 7 R{4,17} + 7 R{4,19} + 7 R{5,3} + 7 R{5,4} + 7 R{5,5}
   + 7 R{5,6} <= 7
 R2_33: 12 R{3,7} + 12 R{3,11} + 12 R{3,13} + 12 R{5,6} + 12 R{5,11}
   + 12 R{6,10} + 12 R{6,12} + 12 R{6,14} + 12 R{6,16} <= 12
 R2_34: 5 R{0,7} + 5 R{0,9} + 5 R{0,11} + 5 R{0,12} + 5 R{0,13} + 5 R{0,14}
   + 5 R{3,5} + 5 R{6,10} + 5 R{6,13} <= 5
 R2_35: 13 R{0,11} + 13 R{5,6} <= 13
 R2_36: <= 0
 R2_37: <= 5
 R2_38: <= 0
 R2_39: <= 0
 R2_40: 15 R{2,3} + 15 R{2,4} + 15 R{2,5} + 15 R{2,7} + 15 R{2,8}
   + 15 R{2,10} + 15 R{4,5} + 15 R{4,6} + 15 R{4,9} + 15 R{4,10}
   + 15 R{4,15} + 15 R{4,17} + 15 R{4,19} + 15 R{5,6} <= 15
 R2_41: <= 5
 R2_42: 4 R{2,3} + 4 R{2,4} + 4 R{2,5} + 4 R{2,7} + 4 R{2,8} + 4 R{2,10}
   + 4 R{2,11} <= 4
 R2_43: <= 0
 R2_44: <= 0
 R2_45: <= 0
 R2_46: 9 R{0,7} + 9 R{0,9} + 9 R{0,12} + 9 R{3,5} + 9 R{4,5} + 9 R{4,6}
   + 9 R{4,9} + 9 R{4,10} + 9 R{4,16} <= 9
 R2_47: 7 R{1,1} + 7 R{1,2} <= 7
 R2_48: 4 R{0,10} + 4 R{0,13} + 4 R{4,1} + 4 R{4,2} + 4 R{4,3} + 4 R{4,4}
   + 4 R{4,5} + 4 R{4,6} + 4 R{4,7} + 4 R{4,8} + 4 R{4,9} + 4 R{4,10}
   + 4 R{4,11} + 4 R{4,12} + 4 R{4,13} + 4 R{4,14} + 4 R{4,15} + 4 R{4,18}
   <= 4
 R2_49: <= 0
 R2_50: <= 0
 R2_51: 11 R{2,11} + 11 R{3,15} <= 11
 R2_52: 10 R{0,7} + 10 R{0,12} + 10 R{0,13} + 10 R{0,14} + 10 R{0,15}
   + 10 R{3,5} <= 10
 R2_53: 13 R{4,1} + 13 R{4,2} + 13 R{4,3} + 13 R{4,4} + 13 R{4,5}
   + 13 R{4,6} + 13 R{4,7} + 13 R{4,9} + 13 R{4,13} + 13 R{4,18} <= 13
 R2_54: 9 R{3,1} + 9 R{3,2} + 9 R{3,3} + 9 R{3,4} + 9 R{3,5} + 9 R{3,6}
   + 9 R{3,8} + 9 R{3,9} + 9 R{3,10} + 9 R{3,12} + 9 R{3,14} + 9 R{3,15}
   + 9 R{3,16} + 9 R{3,17} <= 9
 R2_55: <= 0
 R2_56: 6 R{0,7} + 6 R{0,9} + 6 R{0,11} + 6 R{0,13} + 6 R{0,15} + 6 R{2,0}
   + 6 R{2,1} + 6 R{2,9} + 6 R{2,12} + 6 R{3,5} + 6 R{4,5} + 6 R{4,10}
   + 6 R{4,11} + 6 R{4,12} + 6 R{4,14} + 6 R{4,15} + 6 R{4,17} + 6 R{4,19}
   + 6 R{6,2} + 6 R{6,3} + 6 R{6,4} + 6 R{6,6} + 6 R{6,11} + 6 R{6,16}
   + 6 R{6,17} <= 6
 R2_57: <= 0
 R2_58: <= 0
 R2_59: 10 R{0,7} + 10 R{0,11} + 10 R{0,15} + 10 R{3,5} + 10 R{3,9}
   + 10 R{4,5} + 10 R{4,6} + 10 R{4,8} + 10 R{4,10} + 10 R{4,16}
   + 10 R{4,19} + 10 R{6,15} <= 10
 R2_60: <= 0
 R2_61: 9 R{0,9} + 9 R{2,6} + 9 R{4,13} + 9 R{6,7} + 9 R{6,9} + 9 R{6,11}
   + 9 R{6,12} <= 9
 R2_62: <= 0
 R2_63: <= 0
 R2_64: <= 0
 R2_65: 5 R{0,12} + 5 R{0,14} + 5 R{2,0} + 5 R{2,1} + 5 R{6,1} + 5 R{6,2}
   + 5 R{6,3} + 5 R{6,5} + 5 R{6,6} + 5 R{6,7} + 5 R{6,8} + 5 R{6,9}
   + 5 R{6,13} + 5 R{6,17} <= 5
 R2_66: 7 R{3,8} + 7 R{3,11} + 7 R{5,9} + 7 R{5,11} <= 7
 R2_67: 3 R{0,1} + 3 R{0,2} + 3 R{0,6} + 3 R{0,10} + 3 R{0,12} + 3 R{0,14}
   + 3 R{2,0} + 3 R{2,1} + 3 R{2,6} + 3 R{2,9} + 3 R{2,12} + 3 R{6,4} <= 3
 R2_68: 6 R{4,1} + 6 R{4,5} + 6 R{4,6} + 6 R{4,9} + 6 R{4,10} + 6 R{4,11}
   + 6 R{4,15} + 6 R{4,17} + 6 R{4,18} + 6 R{4,19} + 6 R{5,4} <= 6
 R2_69: 7 R{2,7} + 7 R{2,10} + 7 R{4,1} + 7 R{4,2} + 7 R{4,3} + 7 R{4,5}
   + 7 R{4,6} + 7 R{4,7} + 7 R{4,8} + 7 R{4,10} + 7 R{4,11} + 7 R{4,12}
   + 7 R{4,14} + 7 R{4,16} + 7 R{4,18} + 7 R{5,4} + 7 R{5,6} <= 7
 R2_70: 11 R{6,1} + 11 R{6,2} + 11 R{6,3} + 11 R{6,5} + 11 R{6,15}
   + 11 R{6,17} <= 11
 R2_71: 7 R{3,1} + 7 R{3,2} + 7 R{3,3} + 7 R{3,4} + 7 R{3,6} + 7 R{3,7}
   + 7 R{3,8} + 7 R{3,9} + 7 R{3,11} + 7 R{3,13} + 7 R{3,14} + 7 R{3,17}
   + 7 R{4,9} + 7 R{4,15} + 7 R{4,17} + 7 R{6,2} + 7 R{6,3} + 7 R{6,5}
   + 7 R{6,17} <= 7
 R2_72: <= 0
 R2_73: <= 0
 R2_74: 5 R{5,1} + 5 R{5,2} + 5 R{5,3} + 5 R{5,5} + 5 R{5,6} + 5 R{5,7}
   <= 5
 R2_75: 8 R{6,1} + 8 R{6,2} + 8 R{6,3} + 8 R{6,4} + 8 R{6,5} + 8 R{6,6}
   + 8 R{6,7} + 8 R{6,9} + 8 R{6,11} + 8 R{6,12} + 8 R{6,15} + 8 R{6,17}
   <= 8
 R2_76: 12 R{0,4} + 12 R{1,3} + 12 R{1,6} + 12 R{1,8} + 12 R{2,7}
   + 12 R{3,3} + 12 R{3,5} + 12 R{3,9} + 12 R{5,6} + 12 R{5,7} + 12 R{5,8}
   + 12 R{5,9} + 12 R{5,10} + 12 R{6,17} <= 12
 R2_77: 7 R{1,2} + 7 R{1,7} + 7 R{2,4} + 7 R{2,5} + 7 R{2,8} + 7 R{3,13}
   + 7 R{4,2} + 7 R{4,3} + 7 R{4,4} + 7 R{4,12} + 7 R{4,14} + 7 R{5,9}
   + 7 R{5,11} + 7 R{6,3} + 7 R{6,5} + 7 R{6,6} + 7 R{6,7} + 7 R{6,9}
   + 7 R{6,11} + 7 R{6,15} <= 7
Bounds
End
